/* Objective function */
min: - 0.0054fpdi - 0.0054fpdo + 0.05apdi + 0.05apdo + 0.0002pi + 0.0002po - 0.5fsi - 0.5fso;

apdi = 0.0 hi + -0.0 li + 3.99405 ri + 10.89153 ci + -0.75635 si + 0.0 ti + 0.03424 fTempIi + 0.08044 ami + -72.65365;
asi = 0.0 hi + -0.0 li + 0.0 ri + 0.14143 ci + -0.0 si + 0.0 ti + -0.0 fTempIi + 0.00105 ami + -0.21714;
aTempOi = 0.0 hi + 0.0 li + 0.15374 ri + -0.64183 ci + -0.02983 si + -0.0 ti + 0.80827 fTempIi + -0.00708 ami + 7.99416;
fpdi = 0.0 hi + 0.0 li + 6.29375 ri + -112.83307 ci + -0.01071 si + -0.0 ti + -0.42143 fTempIi + 0.00218 ami + 175.58626;
fsi = 0.0 hi + 0.0 li + 0.0 ri + -0.35 ci + 0.0 si + -0.0 ti + 0.0 fTempIi + 0.0 ami + 1.06;
fTempOi = 0.0 hi + -0.0 li + -0.1624 ri + 0.6828 ci + 0.03114 si + 0.0 ti + 0.15639 fTempIi + -0.00576 ami + 9.95406;
pi = 0.0 hi + 0.0 li + 43.41667 ri + -18.55556 ci + -2.7881 si + -0.0 ti + 0.0 fTempIi + -0.0 ami + 190.17857;

apdo = 0.0 ho + -0.0 lo + 4.10119 ro + 11.65079 co + -0.76582 so + 0.0 to + 0.03673 fTempIo + 0.0829 amo + -75.67912;
aso = 0.0 ho + -0.0 lo + 0.0 ro + 0.14143 co + -0.0 so + 0.0 to + -0.0 fTempIo + 0.00105 amo + -0.21714;
aTempOo = 0.0 ho + -0.0 lo + -0.16856 ro + 0.71299 co + 0.03402 so + 0.0 to + 0.79631 fTempIo + 0.00747 amo + -2.52595;
fpdo = 0.0 ho + 0.0 lo + 6.08502 ro + -110.84339 co + 0.01236 so + -0.0 to + -0.4073 fTempIo + -0.0023 amo + 172.46351;
fso = 0.0 ho + 0.0 lo + 0.0 ro + -0.35 co + 0.0 so + -0.0 to + 0.0 fTempIo + 0.0 amo + 1.06;
fTempOo = 0.0 ho + 0.0 lo + 0.18026 ro + -0.77487 co + -0.03245 so + -0.0 to + 0.16678 fTempIo + 0.00621 amo + 14.7422;
po = 0.0 ho + 0.0 lo + 41.41667 ro + -15.66667 co + -2.11667 so + 0.0 to + 0.0 fTempIo + -0.0 amo + 165.91667;

/* Variable bounds */
aTempOi > 18.6;
1 =r6i + r8i + r10i + r12i + r14i;
ri =6r6i + 8r8i + 10r10i + 12r12i + 14r14i;
1 =s25i + s30i + s40i;
si =25s25i + 30s30i + 40s40i;
ti = 1;
apdi > 100;
apdi < 300;
asi > 0;
asi < 3;
aTempOi > 5;
aTempOi < 25;
fpdi > 100;
fpdi < 300;
fsi > 0;
fsi < 1.25;
fTempOi > 5;
fTempOi < 25;
pi > 0;
ri > 10;
ri < 14;
ci > 1;
ci < 3;
si > 25;
si < 60;
ti > 1;
ti < 3;
fTempIi > 5;
fTempIi < 25;

/* aTempOo < 11.4; */
1 =r6o + r8o + r10o + r12o + r14o;
ro =6r6o + 8r8o + 10r10o + 12r12o + 14r14o;
1 =s25o + s30o + s40o;
so =25s25o + 30s30o + 40s40o;
to = 2;
apdo > 100;
apdo < 300;
aso > 0;
aso < 3;
aTempOo > 5;
aTempOo < 25;
fpdo > 100;
fpdo < 300;
fso > 0;
fso < 1.25;
fTempOo > 5;
fTempOo < 25;
po > 0;
ro > 10;
ro < 14;
co > 1;
co < 3;
so > 25;
so < 60;
to > 1;
to < 3;
fTempIo > 5;
fTempIo < 25;
int hi,li,si,ti,ci,ri,ami;
int ho,lo,so,to,co,ro,amo;
bin s25i,s30i,s40i,s50i,s60i,r6i,r8i,r10i,r12i,r14i;
bin s25o,s30o,s40o,s50o,s60o,r6o,r8o,r10o,r12o,r14o;
